NAME: random_100
TYPE: TSP
COMMENT: 100 random cities
DIMENSION: 100
EDGE_WEIGHT_TYPE: EUC_2D
NODE_COORD_SECTION
1 10.0 20.0
2 30.0 40.0
3 50.0 60.0
4 70.0 80.0
5 90.0 10.0
6 20.0 30.0
7 40.0 50.0
8 60.0 70.0
9 80.0 90.0
10 10.0 50.0
11 30.0 70.0
12 50.0 90.0
13 70.0 10.0
14 90.0 30.0
15 20.0 60.0
16 40.0 80.0
17 60.0 10.0
18 80.0 30.0
19 10.0 70.0
20 30.0 90.0
21 50.0 10.0
22 70.0 30.0
23 90.0 50.0
24 20.0 20.0
25 40.0 40.0
26 60.0 60.0
27 80.0 80.0
28 10.0 90.0
29 30.0 10.0
30 50.0 30.0
31 70.0 50.0
32 90.0 70.0
33 15.0 25.0
34 35.0 45.0
35 55.0 65.0
36 75.0 85.0
37 95.0 15.0
38 25.0 35.0
39 45.0 55.0
40 65.0 75.0
41 85.0 95.0
42 15.0 55.0
43 35.0 75.0
44 55.0 95.0
45 75.0 15.0
46 95.0 35.0
47 25.0 65.0
48 45.0 85.0
49 65.0 15.0
50 85.0 35.0
51 15.0 75.0
52 35.0 95.0
53 55.0 15.0
54 75.0 35.0
55 95.0 55.0
56 25.0 25.0
57 45.0 45.0
58 65.0 65.0
59 85.0 85.0
60 15.0 95.0
61 35.0 15.0
62 55.0 35.0
63 75.0 55.0
64 95.0 75.0
65 12.0 22.0
66 32.0 42.0
67 52.0 62.0
68 72.0 82.0
69 92.0 12.0
70 22.0 32.0
71 42.0 52.0
72 62.0 72.0
73 82.0 92.0
74 12.0 52.0
75 32.0 72.0
76 52.0 92.0
77 72.0 12.0
78 92.0 32.0
79 22.0 62.0
80 42.0 82.0
81 62.0 12.0
82 82.0 32.0
83 12.0 72.0
84 32.0 92.0
85 52.0 12.0
86 72.0 32.0
87 92.0 52.0
88 22.0 22.0
89 42.0 42.0
90 62.0 62.0
91 82.0 82.0
92 12.0 92.0
93 32.0 12.0
94 52.0 32.0
95 72.0 52.0
96 92.0 72.0
97 18.0 28.0
98 38.0 48.0
99 58.0 68.0
100 78.0 88.0